c "910790.clq"
p edge 100 1344
e 1 17
e 1 18
e 1 21
e 1 23
e 1 26
e 1 37
e 1 61
e 1 62
e 1 86
e 1 98
e 2 17
e 2 18
e 2 19
e 2 21
e 2 22
e 2 23
e 2 24
e 2 25
e 2 26
e 2 28
e 2 30
e 2 31
e 2 33
e 2 34
e 2 36
e 2 37
e 2 43
e 2 44
e 2 47
e 2 49
e 2 53
e 2 55
e 2 56
e 2 63
e 2 68
e 2 70
e 2 76
e 2 77
e 2 78
e 2 81
e 2 84
e 2 88
e 2 99
e 2 100
e 3 17
e 3 18
e 3 19
e 3 20
e 3 21
e 3 24
e 3 26
e 3 28
e 3 29
e 3 41
e 3 43
e 3 50
e 3 52
e 3 66
e 3 87
e 3 93
e 4 17
e 4 18
e 4 19
e 4 22
e 4 24
e 4 25
e 4 26
e 4 27
e 4 30
e 4 32
e 4 35
e 4 38
e 4 61
e 4 63
e 4 71
e 4 74
e 4 78
e 4 80
e 4 81
e 4 84
e 4 85
e 4 94
e 4 95
e 4 96
e 5 17
e 5 18
e 5 19
e 5 20
e 5 21
e 5 23
e 5 25
e 5 26
e 5 28
e 5 29
e 5 32
e 5 33
e 5 40
e 5 42
e 5 44
e 5 45
e 5 47
e 5 56
e 5 57
e 5 74
e 5 79
e 5 80
e 6 17
e 6 19
e 6 20
e 6 24
e 6 25
e 6 26
e 6 30
e 6 38
e 6 39
e 6 40
e 6 42
e 6 49
e 6 53
e 6 56
e 6 57
e 6 58
e 6 59
e 6 62
e 6 67
e 6 74
e 6 75
e 6 77
e 6 81
e 6 92
e 6 98
e 7 17
e 7 18
e 7 19
e 7 20
e 7 21
e 7 22
e 7 23
e 7 24
e 7 25
e 7 26
e 7 27
e 7 31
e 7 32
e 7 33
e 7 36
e 7 40
e 7 44
e 7 45
e 7 48
e 7 51
e 7 54
e 7 55
e 7 62
e 7 70
e 7 87
e 7 88
e 7 91
e 7 93
e 7 94
e 8 17
e 8 18
e 8 19
e 8 20
e 8 21
e 8 22
e 8 25
e 8 26
e 8 27
e 8 28
e 8 32
e 8 36
e 8 38
e 8 39
e 8 41
e 8 42
e 8 44
e 8 46
e 8 50
e 8 58
e 8 61
e 8 62
e 8 63
e 8 72
e 8 74
e 8 79
e 8 80
e 8 82
e 8 83
e 8 87
e 8 93
e 8 98
e 9 17
e 9 18
e 9 19
e 9 20
e 9 21
e 9 22
e 9 23
e 9 24
e 9 26
e 9 32
e 9 33
e 9 34
e 9 39
e 9 52
e 9 85
e 9 100
e 10 17
e 10 18
e 10 19
e 10 20
e 10 22
e 10 23
e 10 24
e 10 25
e 10 26
e 10 27
e 10 28
e 10 29
e 10 33
e 10 34
e 10 35
e 10 36
e 10 38
e 10 45
e 10 52
e 10 58
e 10 60
e 10 61
e 10 66
e 10 67
e 10 74
e 10 77
e 10 82
e 10 94
e 10 95
e 10 97
e 11 17
e 11 18
e 11 19
e 11 20
e 11 21
e 11 22
e 11 24
e 11 26
e 11 27
e 11 29
e 11 35
e 11 40
e 11 41
e 11 46
e 11 48
e 11 51
e 11 54
e 11 60
e 11 67
e 11 73
e 11 76
e 11 78
e 11 81
e 11 83
e 11 84
e 11 86
e 11 98
e 11 99
e 12 17
e 12 18
e 12 19
e 12 20
e 12 21
e 12 22
e 12 23
e 12 24
e 12 25
e 12 27
e 12 28
e 12 30
e 12 33
e 12 41
e 12 44
e 12 46
e 12 48
e 12 52
e 12 53
e 12 54
e 12 60
e 12 65
e 12 71
e 12 75
e 12 76
e 12 80
e 12 84
e 12 97
e 13 17
e 13 18
e 13 19
e 13 20
e 13 22
e 13 23
e 13 24
e 13 25
e 13 26
e 13 27
e 13 29
e 13 30
e 13 31
e 13 32
e 13 35
e 13 36
e 13 39
e 13 40
e 13 41
e 13 42
e 13 43
e 13 50
e 13 53
e 13 56
e 13 57
e 13 61
e 13 62
e 13 66
e 13 67
e 13 72
e 13 79
e 13 81
e 13 82
e 13 84
e 13 90
e 13 91
e 13 93
e 13 98
e 13 100
e 14 17
e 14 18
e 14 19
e 14 20
e 14 21
e 14 22
e 14 25
e 14 27
e 14 35
e 14 42
e 14 55
e 14 59
e 14 64
e 14 71
e 14 76
e 14 83
e 14 90
e 14 92
e 15 17
e 15 18
e 15 19
e 15 20
e 15 21
e 15 22
e 15 23
e 15 31
e 15 35
e 15 39
e 15 43
e 15 51
e 15 52
e 15 55
e 15 58
e 15 66
e 15 70
e 15 74
e 15 90
e 16 17
e 16 18
e 16 20
e 16 21
e 16 23
e 16 24
e 16 25
e 16 28
e 16 30
e 16 31
e 16 32
e 16 33
e 16 34
e 16 38
e 16 42
e 16 43
e 16 47
e 16 48
e 16 50
e 16 51
e 16 54
e 16 68
e 16 81
e 16 85
e 17 18
e 17 19
e 17 20
e 17 21
e 17 22
e 17 23
e 17 25
e 17 26
e 17 27
e 17 28
e 17 29
e 17 30
e 17 31
e 17 33
e 17 34
e 17 35
e 17 36
e 17 37
e 17 38
e 17 39
e 17 41
e 17 43
e 17 44
e 17 47
e 17 48
e 17 49
e 17 51
e 17 52
e 17 55
e 17 56
e 17 58
e 17 61
e 17 63
e 17 64
e 17 66
e 17 70
e 17 71
e 17 77
e 17 79
e 17 81
e 17 84
e 17 85
e 17 87
e 17 89
e 17 90
e 17 94
e 17 96
e 17 97
e 17 99
e 18 19
e 18 20
e 18 21
e 18 22
e 18 23
e 18 24
e 18 25
e 18 26
e 18 27
e 18 28
e 18 29
e 18 30
e 18 32
e 18 33
e 18 34
e 18 35
e 18 36
e 18 37
e 18 38
e 18 39
e 18 40
e 18 41
e 18 42
e 18 43
e 18 45
e 18 46
e 18 48
e 18 49
e 18 52
e 18 53
e 18 54
e 18 55
e 18 57
e 18 59
e 18 63
e 18 64
e 18 65
e 18 67
e 18 69
e 18 70
e 18 72
e 18 73
e 18 75
e 18 78
e 18 79
e 18 82
e 18 86
e 18 89
e 18 91
e 18 94
e 18 98
e 19 20
e 19 21
e 19 22
e 19 23
e 19 25
e 19 28
e 19 29
e 19 30
e 19 32
e 19 33
e 19 35
e 19 36
e 19 37
e 19 39
e 19 40
e 19 41
e 19 42
e 19 44
e 19 45
e 19 47
e 19 50
e 19 53
e 19 55
e 19 59
e 19 63
e 19 64
e 19 65
e 19 66
e 19 67
e 19 68
e 19 73
e 19 74
e 19 77
e 19 80
e 19 85
e 19 86
e 19 88
e 19 93
e 19 95
e 19 97
e 19 98
e 19 99
e 20 21
e 20 22
e 20 23
e 20 24
e 20 28
e 20 29
e 20 30
e 20 31
e 20 33
e 20 34
e 20 35
e 20 37
e 20 38
e 20 40
e 20 43
e 20 45
e 20 47
e 20 48
e 20 51
e 20 52
e 20 54
e 20 56
e 20 58
e 20 59
e 20 60
e 20 61
e 20 67
e 20 69
e 20 74
e 20 75
e 20 77
e 20 84
e 20 88
e 20 90
e 20 92
e 20 93
e 20 95
e 20 100
e 21 22
e 21 23
e 21 24
e 21 25
e 21 26
e 21 27
e 21 28
e 21 29
e 21 30
e 21 31
e 21 32
e 21 34
e 21 35
e 21 36
e 21 38
e 21 39
e 21 40
e 21 43
e 21 45
e 21 48
e 21 51
e 21 54
e 21 58
e 21 59
e 21 61
e 21 62
e 21 63
e 21 65
e 21 68
e 21 73
e 21 77
e 21 79
e 21 87
e 21 89
e 21 90
e 21 94
e 21 96
e 21 99
e 21 100
e 22 23
e 22 24
e 22 27
e 22 29
e 22 30
e 22 31
e 22 32
e 22 38
e 22 41
e 22 42
e 22 44
e 22 46
e 22 47
e 22 50
e 22 51
e 22 53
e 22 56
e 22 60
e 22 65
e 22 68
e 22 70
e 22 71
e 22 74
e 22 91
e 22 93
e 22 96
e 23 24
e 23 25
e 23 27
e 23 29
e 23 30
e 23 31
e 23 32
e 23 33
e 23 34
e 23 36
e 23 37
e 23 39
e 23 41
e 23 42
e 23 43
e 23 45
e 23 46
e 23 48
e 23 49
e 23 50
e 23 52
e 23 54
e 23 55
e 23 57
e 23 58
e 23 59
e 23 62
e 23 63
e 23 65
e 23 67
e 23 71
e 23 73
e 23 75
e 23 79
e 23 80
e 23 83
e 23 91
e 23 96
e 23 98
e 23 100
e 24 26
e 24 27
e 24 28
e 24 29
e 24 31
e 24 34
e 24 35
e 24 36
e 24 37
e 24 38
e 24 39
e 24 44
e 24 47
e 24 49
e 24 51
e 24 53
e 24 54
e 24 55
e 24 57
e 24 59
e 24 62
e 24 64
e 24 65
e 24 68
e 24 70
e 24 71
e 24 72
e 24 73
e 24 74
e 24 77
e 24 78
e 24 85
e 24 86
e 24 88
e 24 89
e 24 92
e 24 97
e 24 99
e 24 100
e 25 27
e 25 28
e 25 29
e 25 30
e 25 31
e 25 32
e 25 34
e 25 35
e 25 37
e 25 39
e 25 42
e 25 43
e 25 45
e 25 46
e 25 47
e 25 49
e 25 50
e 25 51
e 25 52
e 25 53
e 25 56
e 25 57
e 25 58
e 25 60
e 25 64
e 25 67
e 25 68
e 25 72
e 25 74
e 25 76
e 25 81
e 25 82
e 25 89
e 25 90
e 25 91
e 25 96
e 25 97
e 25 98
e 25 99
e 25 100
e 26 27
e 26 28
e 26 29
e 26 30
e 26 34
e 26 37
e 26 40
e 26 45
e 26 46
e 26 47
e 26 48
e 26 50
e 26 52
e 26 55
e 26 57
e 26 58
e 26 66
e 26 67
e 26 76
e 26 82
e 26 85
e 26 86
e 26 87
e 26 89
e 26 95
e 26 100
e 27 28
e 27 30
e 27 31
e 27 32
e 27 33
e 27 34
e 27 37
e 27 39
e 27 40
e 27 44
e 27 45
e 27 49
e 27 52
e 27 53
e 27 56
e 27 59
e 27 61
e 27 63
e 27 64
e 27 68
e 27 69
e 27 70
e 27 73
e 27 75
e 27 76
e 27 81
e 27 84
e 27 85
e 27 88
e 27 89
e 27 92
e 27 99
e 28 29
e 28 31
e 28 32
e 28 34
e 28 35
e 28 36
e 28 37
e 28 38
e 28 39
e 28 50
e 28 51
e 28 52
e 28 53
e 28 59
e 28 68
e 28 73
e 28 75
e 28 78
e 28 79
e 28 91
e 28 95
e 29 31
e 29 32
e 29 33
e 29 34
e 29 36
e 29 37
e 29 41
e 29 46
e 29 49
e 29 50
e 29 54
e 29 56
e 29 59
e 29 61
e 29 62
e 29 64
e 29 69
e 29 71
e 29 80
e 29 81
e 29 82
e 29 94
e 29 99
e 30 31
e 30 33
e 30 34
e 30 35
e 30 36
e 30 37
e 30 41
e 30 43
e 30 44
e 30 60
e 30 70
e 30 74
e 30 77
e 30 80
e 30 83
e 30 94
e 31 33
e 31 47
e 31 51
e 31 53
e 31 54
e 31 61
e 31 62
e 31 63
e 31 71
e 31 73
e 31 74
e 31 76
e 31 80
e 31 81
e 31 83
e 31 84
e 31 85
e 31 86
e 31 90
e 31 92
e 31 99
e 32 36
e 32 40
e 32 41
e 32 43
e 32 44
e 32 45
e 32 48
e 32 57
e 32 60
e 32 64
e 32 65
e 32 68
e 32 69
e 32 70
e 32 74
e 32 78
e 32 80
e 32 81
e 32 83
e 32 86
e 32 88
e 32 93
e 32 96
e 32 97
e 33 37
e 33 39
e 33 40
e 33 42
e 33 44
e 33 49
e 33 53
e 33 66
e 33 89
e 33 91
e 33 94
e 34 35
e 34 38
e 34 41
e 34 43
e 34 44
e 34 46
e 34 48
e 34 64
e 34 65
e 34 68
e 34 69
e 34 70
e 34 71
e 34 72
e 34 77
e 34 88
e 34 94
e 35 36
e 35 37
e 35 38
e 35 39
e 35 40
e 35 43
e 35 44
e 35 45
e 35 46
e 35 47
e 35 49
e 35 51
e 35 53
e 35 54
e 35 56
e 35 57
e 35 59
e 35 60
e 35 61
e 35 69
e 35 71
e 35 72
e 35 83
e 35 92
e 35 94
e 35 96
e 35 100
e 36 38
e 36 42
e 36 46
e 36 47
e 36 48
e 36 49
e 36 51
e 36 53
e 36 57
e 36 60
e 36 62
e 36 73
e 36 90
e 36 91
e 36 92
e 36 95
e 37 38
e 37 41
e 37 42
e 37 48
e 37 58
e 37 65
e 37 68
e 37 69
e 37 71
e 37 73
e 37 74
e 37 78
e 37 95
e 37 96
e 37 100
e 38 40
e 38 42
e 38 46
e 38 49
e 38 50
e 38 52
e 38 57
e 38 62
e 38 66
e 38 67
e 38 69
e 38 85
e 38 86
e 38 90
e 38 98
e 39 40
e 39 41
e 39 42
e 39 46
e 39 50
e 39 52
e 39 55
e 39 56
e 39 59
e 39 63
e 39 64
e 39 66
e 39 68
e 39 71
e 39 72
e 39 80
e 39 82
e 39 89
e 39 90
e 39 91
e 39 99
e 40 43
e 40 48
e 40 50
e 40 59
e 40 60
e 40 64
e 40 68
e 40 75
e 40 78
e 40 86
e 40 87
e 40 92
e 40 99
e 40 100
e 41 45
e 41 46
e 41 47
e 41 53
e 41 55
e 41 56
e 41 66
e 41 69
e 41 84
e 41 87
e 41 95
e 42 45
e 42 49
e 42 56
e 42 58
e 42 63
e 42 65
e 42 70
e 42 72
e 42 73
e 42 76
e 42 79
e 42 81
e 42 82
e 42 83
e 42 86
e 42 87
e 42 88
e 42 91
e 42 92
e 42 93
e 42 99
e 43 44
e 43 47
e 43 50
e 43 62
e 43 74
e 43 75
e 43 80
e 43 84
e 43 86
e 44 45
e 44 46
e 44 47
e 44 55
e 44 57
e 44 60
e 44 62
e 44 64
e 44 77
e 44 79
e 44 82
e 44 87
e 44 94
e 45 50
e 45 51
e 45 55
e 45 57
e 45 63
e 45 65
e 45 72
e 45 83
e 45 85
e 45 86
e 45 87
e 45 92
e 45 95
e 45 99
e 46 48
e 46 52
e 46 54
e 46 66
e 46 73
e 46 76
e 46 78
e 46 95
e 46 97
e 46 98
e 47 49
e 47 54
e 47 56
e 47 63
e 47 67
e 47 69
e 47 78
e 47 87
e 48 49
e 48 58
e 48 77
e 48 78
e 48 81
e 49 51
e 49 55
e 49 61
e 49 64
e 49 66
e 49 67
e 49 68
e 49 72
e 49 76
e 49 77
e 49 79
e 49 88
e 49 96
e 49 100
e 50 58
e 50 59
e 50 65
e 50 67
e 50 73
e 50 75
e 50 82
e 50 83
e 50 85
e 50 86
e 50 88
e 50 89
e 50 92
e 50 96
e 50 100
e 51 58
e 51 61
e 51 63
e 51 64
e 51 66
e 51 69
e 51 81
e 51 82
e 51 89
e 51 90
e 51 94
e 52 54
e 52 55
e 52 57
e 52 58
e 52 60
e 52 62
e 52 65
e 52 78
e 52 79
e 52 82
e 52 83
e 52 86
e 52 88
e 53 54
e 53 59
e 53 61
e 53 65
e 53 67
e 53 77
e 53 82
e 53 98
e 54 57
e 54 60
e 54 64
e 54 70
e 54 75
e 54 77
e 54 79
e 54 95
e 54 96
e 54 97
e 54 100
e 55 56
e 55 60
e 55 66
e 55 69
e 55 72
e 55 76
e 55 87
e 55 90
e 55 93
e 56 60
e 56 72
e 56 75
e 56 84
e 56 96
e 57 61
e 57 65
e 57 69
e 57 72
e 57 84
e 57 92
e 57 93
e 57 94
e 57 95
e 58 70
e 58 78
e 58 79
e 58 81
e 58 93
e 58 95
e 59 62
e 59 72
e 59 75
e 59 76
e 59 79
e 59 89
e 59 92
e 59 93
e 60 84
e 60 85
e 60 100
e 61 88
e 61 91
e 61 95
e 62 63
e 62 66
e 62 68
e 62 69
e 62 75
e 62 91
e 62 96
e 62 97
e 63 73
e 63 76
e 63 80
e 63 90
e 63 93
e 64 71
e 64 75
e 64 98
e 65 70
e 65 71
e 65 76
e 65 80
e 65 87
e 65 93
e 65 94
e 65 95
e 66 67
e 66 69
e 66 70
e 66 83
e 66 97
e 67 73
e 67 76
e 67 92
e 67 97
e 67 98
e 67 99
e 68 72
e 68 78
e 69 71
e 69 77
e 69 78
e 69 96
e 69 97
e 70 89
e 70 91
e 70 93
e 71 82
e 71 87
e 72 79
e 72 80
e 72 87
e 72 90
e 72 96
e 73 85
e 73 88
e 73 89
e 73 91
e 73 97
e 74 75
e 76 85
e 76 86
e 76 97
e 77 83
e 77 91
e 77 94
e 78 82
e 78 83
e 78 89
e 79 80
e 79 84
e 79 88
e 81 83
e 81 84
e 82 92
e 83 85
e 83 89
e 83 97
e 85 88
e 85 98
e 88 90
e 90 99
e 94 98
